
Gurobi 11.0.3 (linux64) logging started Mon Aug 25 16:59:42 2025

Set parameter LogFile to value "/home/yihong/Coding/OR_SUC/SUC_epstheta_results_bigM100000_thread4/case24_ieee_rts_theta0.001_epsilon0.1_gurobi_seed160000_num_gen100_N_WDR50_load_scaling_factor1_ori_eps_T4quadra_cost_bc1.03.txt"
Set parameter TimeLimit to value 3600
Gurobi Optimizer version 11.0.3 build v11.0.3rc0 (linux64 - "Ubuntu 20.04.6 LTS")

CPU model: AMD EPYC 7532 32-Core Processor, instruction set [SSE2|AVX|AVX2]
Thread count: 64 physical cores, 128 logical processors, using up to 4 threads

Academic license 2399124 - for non-commercial use only - registered to yi___@ed.ac.uk
Optimize a model with 9128 rows, 5011 columns and 217718 nonzeros
Model fingerprint: 0x1198b9df
Model has 400 quadratic constraints
Variable types: 4611 continuous, 400 integer (400 binary)
Coefficient statistics:
  Matrix range     [3e-04, 3e+03]
  QMatrix range    [2e-03, 8e-03]
  QLMatrix range   [9e-02, 6e+01]
  Objective range  [1e+00, 1e+00]
  Bounds range     [1e+00, 1e+00]
  RHS range        [5e-02, 8e+03]
Presolve removed 7682 rows and 2329 columns
Presolve time: 0.05s
Presolved: 1446 rows, 2682 columns, 9608 nonzeros
Presolved model has 400 quadratic constraint(s)
Variable types: 2282 continuous, 400 integer (400 binary)

Root relaxation: objective 3.817648e+03, 934 iterations, 0.01 seconds (0.01 work units)

    Nodes    |    Current Node    |     Objective Bounds      |     Work
 Expl Unexpl |  Obj  Depth IntInf | Incumbent    BestBd   Gap | It/Node Time

     0     0 3817.64849    0    8          - 3817.64849      -     -    0s
H    0     0                    75841.700064 4314.94923  94.3%     -    0s
     0     0 4314.94923    0  180 75841.7001 4314.94923  94.3%     -    0s
     0     0 36092.9870    0    8 75841.7001 36092.9870  52.4%     -    0s
     0     0 36634.2736    0    8 75841.7001 36634.2736  51.7%     -    0s
     0     0 58937.8100    0    8 75841.7001 58937.8100  22.3%     -    0s
     0     0 58945.0199    0    8 75841.7001 58945.0199  22.3%     -    0s
     0     0 58949.6662    0    4 75841.7001 58949.6662  22.3%     -    0s
     0     0 58950.3338    0    4 75841.7001 58950.3338  22.3%     -    0s
     0     0 58950.3338    0    4 75841.7001 58950.3338  22.3%     -    0s
     0     2 58950.3338    0    4 75841.7001 58950.3338  22.3%     -    0s
H   68    64                    59002.076762 58954.5529  0.08%  18.2    0s
*   68    64              16    59002.076762 58954.5529  0.08%  18.4    0s

Cutting planes:
  Gomory: 5
  Implied bound: 81
  MIR: 4
  Flow cover: 57
  RLT: 2
  Relax-and-lift: 48

Explored 73 nodes (4446 simplex iterations) in 0.62 seconds (0.57 work units)
Thread count was 4 (of 128 available processors)

Solution count 2: 59002.1 75841.7 

Optimal solution found (tolerance 1.00e-03)
Warning: max constraint violation (6.3740e-09) exceeds tolerance
Best objective 5.900207676183e+04, best bound 5.895455289312e+04, gap 0.0805%

Gurobi 11.0.3 (linux64) logging started Mon Aug 25 16:59:43 2025

Set parameter LogFile to value "/home/yihong/Coding/OR_SUC/SUC_epstheta_results_bigM100000_thread4/case24_ieee_rts_theta0.001_epsilon0.1_gurobi_seed160000_num_gen100_N_WDR50_load_scaling_factor1_ori_eps_T4quadra_cost_bc1.03.txt"
Set parameter TimeLimit to value 3600
Gurobi Optimizer version 11.0.3 build v11.0.3rc0 (linux64 - "Ubuntu 20.04.6 LTS")

CPU model: AMD EPYC 7532 32-Core Processor, instruction set [SSE2|AVX|AVX2]
Thread count: 64 physical cores, 128 logical processors, using up to 4 threads

Academic license 2399124 - for non-commercial use only - registered to yi___@ed.ac.uk
Optimize a model with 22856 rows, 5012 columns and 1703251 nonzeros
Model fingerprint: 0xd9ac3b66
Model has 401 quadratic constraints
Variable types: 4612 continuous, 400 integer (400 binary)
Coefficient statistics:
  Matrix range     [3e-04, 3e+03]
  QMatrix range    [2e-03, 5e+01]
  QLMatrix range   [9e-02, 6e+01]
  Objective range  [1e+00, 1e+00]
  Bounds range     [1e-01, 1e+00]
  RHS range        [2e-02, 6e+04]
  QRHS range       [5e-02, 5e-02]
Presolve removed 6852 rows and 1939 columns
Presolve time: 1.49s
Presolved: 16406 rows, 3474 columns, 344709 nonzeros
Presolved model has 400 quadratic constraint(s)
Presolved model has 1 bilinear constraint(s)
Warning: Model contains variables with very large bounds participating
         in product terms.
         Presolve was not able to compute smaller bounds for these variables.
         Consider bounding these variables or reformulating the model.


Solving non-convex MIQCP

Variable types: 3070 continuous, 404 integer (404 binary)

Root relaxation: objective 0.000000e+00, 1867 iterations, 0.34 seconds (0.96 work units)

    Nodes    |    Current Node    |     Objective Bounds      |     Work
 Expl Unexpl |  Obj  Depth IntInf | Incumbent    BestBd   Gap | It/Node Time

     0     0    0.00000    0   10          -    0.00000      -     -    3s
     0     0    0.00000    0   10          -    0.00000      -     -    3s
     0     0    0.00000    0   10          -    0.00000      -     -    3s
     0     0    0.00000    0    4          -    0.00000      -     -    4s
     0     0    0.00000    0    4          -    0.00000      -     -    4s
     0     0    0.00000    0    3          -    0.00000      -     -    4s
     0     0    0.00000    0    3          -    0.00000      -     -    4s
     0     0    0.00000    0    4          -    0.00000      -     -    5s
     0     0    0.00000    0    3          -    0.00000      -     -    5s
     0     0    0.00000    0    3          -    0.00000      -     -    5s
     0     0    0.00000    0    3          -    0.00000      -     -    6s
     0     0    0.00000    0    3          -    0.00000      -     -    6s
     0     2    0.00000    0    3          -    0.00000      -     -    9s
     3     8    0.00000    2    2          -    0.00000      -  42.3   10s
    18    18    0.03446    4    -          -    0.00000      -   204  561s
H   43    45                       0.0010364    0.00000   100%   237  564s
    47    61    0.00000   13    6    0.00104    0.00000   100%   241  566s
   146   279    0.00000   38    3    0.00104    0.00000   100%   140  571s
H  397   507                       0.0004926    0.00000   100%  69.8  573s
   810   218    0.00045   58    2    0.00049    0.00000   100%  58.8  575s
H  818   213                       0.0004925    0.00046  7.44%  64.8  576s
H  819   203                       0.0004903    0.00046  7.03%  64.7  576s
H  822   195                       0.0004896    0.00046  6.79%  64.5  576s
H  822   185                       0.0004701    0.00046  2.92%  64.5  576s
H  831   182                       0.0004664    0.00046  1.74%  67.6  576s
H  844   183                       0.0004662    0.00046  0.77%  69.1  577s
H  844   174                       0.0004661    0.00047  0.05%  69.1  577s
H  844   165                       0.0004661    0.00047  0.05%  69.1  577s

Cutting planes:
  Implied bound: 9
  MIR: 6
  Flow cover: 6
  Inf proof: 4
  RLT: 2

Explored 844 nodes (62117 simplex iterations) in 577.57 seconds (315.18 work units)
Thread count was 4 (of 128 available processors)

Solution count 10: 0.000466128 0.000466132 0.000466196 ... 0.00103639

Optimal solution found (tolerance 1.00e-03)
Best objective 4.661282771642e-04, best bound 4.658970951465e-04, gap 0.0496%
